proyfinal/src/viki/013/experimentInOfficeAgust.take6.output/9e270e63-13ef-41c7-a04f-8cd95d82a2a6.als.dat
{'cnf.clauses': '118081',
 'cnf.totvars': '69608',
 'conflict literals': '56',
 'conflicts': '25',
 'decisions': '6683',
 'memused.mb': '16.69',
 'outcome': 'UNSAT',
 'propagations': '30920',
 'restarts': '1',
 'solver.msecs': 24,
 'task.msecs': 70}
