proyfinal/src/viki/013/experimentInOfficeAgust.take6.output/9e270e63-13ef-41c7-a04f-8cd95d82a2a6.als.out
Reading from standard input... Use '--help' for help.
============================[ Problem Statistics ]=============================
|                                                                             |
|  Number of variables:         69608                                         |
|  Number of clauses:          118081                                         |
|  Parse time:                   0.02 s                                       |
|                                                                             |
============================[ Search Statistics ]==============================
| Conflicts |          ORIGINAL         |          LEARNT          | Progress |
|           |    Vars  Clauses Literals |    Limit  Clauses Lit/Cl |          |
===============================================================================
===============================================================================
restarts              : 1
conflicts             : 25             (1005 /sec)
decisions             : 6683           (0.00 % random) (268674 /sec)
propagations          : 30920          (1243065 /sec)
conflict literals     : 56             (0.00 % deleted)
Memory used           : 16.69 MB
CPU time              : 0.024874 s

UNSATISFIABLE
